2
1000 3
69
386 1 1
389 1 1
390 1 2
393 1 1
267 1 1
268 1 2
269 1 1
271 1 1
272 1 1
273 1 2
277 1 2
278 1 2
280 1 1
281 1 1
283 1 1
284 1 2
286 1 1
289 1 2
290 1 1
292 1 1
294 1 1
296 1 2
298 1 2
299 1 1
300 1 1
301 1 1
305 1 2
306 1 1
307 1 1
309 1 1
310 1 1
311 1 1
312 1 2
316 1 1
318 1 1
319 1 2
324 1 2
326 1 2
328 1 1
329 1 1
332 1 2
333 1 3
334 1 2
336 1 1
337 1 1
341 1 1
344 1 2
346 1 1
347 1 2
352 1 2
353 1 1
355 1 3
356 1 1
357 1 2
359 1 2
361 1 1
363 1 1
365 1 2
366 1 2
367 1 1
368 1 2
370 1 1
372 1 1
375 1 1
377 1 1
379 1 2
380 1 1
381 1 3
382 1 1
